
Gurobi 11.0.0 (win64) logging started Sat Jun 15 10:12:49 2024

Set parameter LogFile to value "./GurobiLog/stage_1_iter_23.log"
Gurobi Optimizer version 11.0.0 build v11.0.0rc2 (win64 - Windows 10.0 (18363.2))

CPU model: Intel(R) Core(TM) i7-8700 CPU @ 3.20GHz, instruction set [SSE2|AVX|AVX2]
Thread count: 6 physical cores, 12 logical processors, using up to 1 threads

Optimize a model with 1504 rows, 20473 columns and 142159 nonzeros
Coefficient statistics:
  Matrix range     [6e-04, 7e+03]
  Objective range  [1e-01, 2e+05]
  Bounds range     [1e+00, 1e+06]
  RHS range        [1e+00, 4e+04]
LP warm-start: use basis
Iteration    Objective       Primal Inf.    Dual Inf.      Time
       0    6.0450524e+04   5.609190e+02   0.000000e+00      0s
      29    6.1166113e+04   0.000000e+00   0.000000e+00      0s

Solved in 29 iterations and 0.01 seconds (0.00 work units)
Optimal objective  6.116611342e+04
